p cnf 466 2380
c Factors encoded in variables 1-12 and 13-24
2 3 4 5 6 7 8 9 10 11 12 0
14 15 16 17 18 19 20 21 22 23 24 0
-25 0
26 0
-171 28 39 0
-171 -28 -39 0
171 28 -39 0
171 -28 39 0
-28 -39 172 0
28 39 -172 0
28 -172 0
39 -172 0
-173 29 40 172 0
-173 -29 -40 172 0
-173 -29 40 -172 0
-173 29 -40 -172 0
173 -29 -40 -172 0
173 29 40 -172 0
173 29 -40 172 0
173 -29 40 172 0
-29 -40 174 0
-29 -172 174 0
-40 -172 174 0
29 40 -174 0
29 172 -174 0
40 172 -174 0
-175 30 41 174 0
-175 -30 -41 174 0
-175 -30 41 -174 0
-175 30 -41 -174 0
175 -30 -41 -174 0
175 30 41 -174 0
175 30 -41 174 0
175 -30 41 174 0
-30 -41 176 0
-30 -174 176 0
-41 -174 176 0
30 41 -176 0
30 174 -176 0
41 174 -176 0
-177 31 42 176 0
-177 -31 -42 176 0
-177 -31 42 -176 0
-177 31 -42 -176 0
177 -31 -42 -176 0
177 31 42 -176 0
177 31 -42 176 0
177 -31 42 176 0
-31 -42 178 0
-31 -176 178 0
-42 -176 178 0
31 42 -178 0
31 176 -178 0
42 176 -178 0
-179 32 43 178 0
-179 -32 -43 178 0
-179 -32 43 -178 0
-179 32 -43 -178 0
179 -32 -43 -178 0
179 32 43 -178 0
179 32 -43 178 0
179 -32 43 178 0
-32 -43 180 0
-32 -178 180 0
-43 -178 180 0
32 43 -180 0
32 178 -180 0
43 178 -180 0
-181 33 44 180 0
-181 -33 -44 180 0
-181 -33 44 -180 0
-181 33 -44 -180 0
181 -33 -44 -180 0
181 33 44 -180 0
181 33 -44 180 0
181 -33 44 180 0
-33 -44 182 0
-33 -180 182 0
-44 -180 182 0
33 44 -182 0
33 180 -182 0
44 180 -182 0
-183 34 45 182 0
-183 -34 -45 182 0
-183 -34 45 -182 0
-183 34 -45 -182 0
183 -34 -45 -182 0
183 34 45 -182 0
183 34 -45 182 0
183 -34 45 182 0
-34 -45 184 0
-34 -182 184 0
-45 -182 184 0
34 45 -184 0
34 182 -184 0
45 182 -184 0
-185 35 46 184 0
-185 -35 -46 184 0
-185 -35 46 -184 0
-185 35 -46 -184 0
185 -35 -46 -184 0
185 35 46 -184 0
185 35 -46 184 0
185 -35 46 184 0
-35 -46 186 0
-35 -184 186 0
-46 -184 186 0
35 46 -186 0
35 184 -186 0
46 184 -186 0
-187 36 47 186 0
-187 -36 -47 186 0
-187 -36 47 -186 0
-187 36 -47 -186 0
187 -36 -47 -186 0
187 36 47 -186 0
187 36 -47 186 0
187 -36 47 186 0
-36 -47 188 0
-36 -186 188 0
-47 -186 188 0
36 47 -188 0
36 186 -188 0
47 186 -188 0
-189 37 48 188 0
-189 -37 -48 188 0
-189 -37 48 -188 0
-189 37 -48 -188 0
189 -37 -48 -188 0
189 37 48 -188 0
189 37 -48 188 0
189 -37 48 188 0
-37 -48 190 0
-37 -188 190 0
-48 -188 190 0
37 48 -190 0
37 188 -190 0
48 188 -190 0
-191 38 49 190 0
-191 -38 -49 190 0
-191 -38 49 -190 0
-191 38 -49 -190 0
191 -38 -49 -190 0
191 38 49 -190 0
191 38 -49 190 0
191 -38 49 190 0
-38 -49 192 0
-38 -190 192 0
-49 -190 192 0
38 49 -192 0
38 190 -192 0
49 190 -192 0
-193 50 192 0
-193 -50 -192 0
193 50 -192 0
193 -50 192 0
-50 -192 194 0
50 192 -194 0
50 -194 0
192 -194 0
-195 52 63 0
-195 -52 -63 0
195 52 -63 0
195 -52 63 0
-52 -63 196 0
52 63 -196 0
52 -196 0
63 -196 0
-197 53 64 196 0
-197 -53 -64 196 0
-197 -53 64 -196 0
-197 53 -64 -196 0
197 -53 -64 -196 0
197 53 64 -196 0
197 53 -64 196 0
197 -53 64 196 0
-53 -64 198 0
-53 -196 198 0
-64 -196 198 0
53 64 -198 0
53 196 -198 0
64 196 -198 0
-199 54 65 198 0
-199 -54 -65 198 0
-199 -54 65 -198 0
-199 54 -65 -198 0
199 -54 -65 -198 0
199 54 65 -198 0
199 54 -65 198 0
199 -54 65 198 0
-54 -65 200 0
-54 -198 200 0
-65 -198 200 0
54 65 -200 0
54 198 -200 0
65 198 -200 0
-201 55 66 200 0
-201 -55 -66 200 0
-201 -55 66 -200 0
-201 55 -66 -200 0
201 -55 -66 -200 0
201 55 66 -200 0
201 55 -66 200 0
201 -55 66 200 0
-55 -66 202 0
-55 -200 202 0
-66 -200 202 0
55 66 -202 0
55 200 -202 0
66 200 -202 0
-203 56 67 202 0
-203 -56 -67 202 0
-203 -56 67 -202 0
-203 56 -67 -202 0
203 -56 -67 -202 0
203 56 67 -202 0
203 56 -67 202 0
203 -56 67 202 0
-56 -67 204 0
-56 -202 204 0
-67 -202 204 0
56 67 -204 0
56 202 -204 0
67 202 -204 0
-205 57 68 204 0
-205 -57 -68 204 0
-205 -57 68 -204 0
-205 57 -68 -204 0
205 -57 -68 -204 0
205 57 68 -204 0
205 57 -68 204 0
205 -57 68 204 0
-57 -68 206 0
-57 -204 206 0
-68 -204 206 0
57 68 -206 0
57 204 -206 0
68 204 -206 0
-207 58 69 206 0
-207 -58 -69 206 0
-207 -58 69 -206 0
-207 58 -69 -206 0
207 -58 -69 -206 0
207 58 69 -206 0
207 58 -69 206 0
207 -58 69 206 0
-58 -69 208 0
-58 -206 208 0
-69 -206 208 0
58 69 -208 0
58 206 -208 0
69 206 -208 0
-209 59 70 208 0
-209 -59 -70 208 0
-209 -59 70 -208 0
-209 59 -70 -208 0
209 -59 -70 -208 0
209 59 70 -208 0
209 59 -70 208 0
209 -59 70 208 0
-59 -70 210 0
-59 -208 210 0
-70 -208 210 0
59 70 -210 0
59 208 -210 0
70 208 -210 0
-211 60 71 210 0
-211 -60 -71 210 0
-211 -60 71 -210 0
-211 60 -71 -210 0
211 -60 -71 -210 0
211 60 71 -210 0
211 60 -71 210 0
211 -60 71 210 0
-60 -71 212 0
-60 -210 212 0
-71 -210 212 0
60 71 -212 0
60 210 -212 0
71 210 -212 0
-213 61 72 212 0
-213 -61 -72 212 0
-213 -61 72 -212 0
-213 61 -72 -212 0
213 -61 -72 -212 0
213 61 72 -212 0
213 61 -72 212 0
213 -61 72 212 0
-61 -72 214 0
-61 -212 214 0
-72 -212 214 0
61 72 -214 0
61 212 -214 0
72 212 -214 0
-215 62 73 214 0
-215 -62 -73 214 0
-215 -62 73 -214 0
-215 62 -73 -214 0
215 -62 -73 -214 0
215 62 73 -214 0
215 62 -73 214 0
215 -62 73 214 0
-62 -73 216 0
-62 -214 216 0
-73 -214 216 0
62 73 -216 0
62 214 -216 0
73 214 -216 0
-217 74 216 0
-217 -74 -216 0
217 74 -216 0
217 -74 216 0
-74 -216 218 0
74 216 -218 0
74 -218 0
216 -218 0
-219 76 87 0
-219 -76 -87 0
219 76 -87 0
219 -76 87 0
-76 -87 220 0
76 87 -220 0
76 -220 0
87 -220 0
-221 77 88 220 0
-221 -77 -88 220 0
-221 -77 88 -220 0
-221 77 -88 -220 0
221 -77 -88 -220 0
221 77 88 -220 0
221 77 -88 220 0
221 -77 88 220 0
-77 -88 222 0
-77 -220 222 0
-88 -220 222 0
77 88 -222 0
77 220 -222 0
88 220 -222 0
-223 78 89 222 0
-223 -78 -89 222 0
-223 -78 89 -222 0
-223 78 -89 -222 0
223 -78 -89 -222 0
223 78 89 -222 0
223 78 -89 222 0
223 -78 89 222 0
-78 -89 224 0
-78 -222 224 0
-89 -222 224 0
78 89 -224 0
78 222 -224 0
89 222 -224 0
-225 79 90 224 0
-225 -79 -90 224 0
-225 -79 90 -224 0
-225 79 -90 -224 0
225 -79 -90 -224 0
225 79 90 -224 0
225 79 -90 224 0
225 -79 90 224 0
-79 -90 226 0
-79 -224 226 0
-90 -224 226 0
79 90 -226 0
79 224 -226 0
90 224 -226 0
-227 80 91 226 0
-227 -80 -91 226 0
-227 -80 91 -226 0
-227 80 -91 -226 0
227 -80 -91 -226 0
227 80 91 -226 0
227 80 -91 226 0
227 -80 91 226 0
-80 -91 228 0
-80 -226 228 0
-91 -226 228 0
80 91 -228 0
80 226 -228 0
91 226 -228 0
-229 81 92 228 0
-229 -81 -92 228 0
-229 -81 92 -228 0
-229 81 -92 -228 0
229 -81 -92 -228 0
229 81 92 -228 0
229 81 -92 228 0
229 -81 92 228 0
-81 -92 230 0
-81 -228 230 0
-92 -228 230 0
81 92 -230 0
81 228 -230 0
92 228 -230 0
-231 82 93 230 0
-231 -82 -93 230 0
-231 -82 93 -230 0
-231 82 -93 -230 0
231 -82 -93 -230 0
231 82 93 -230 0
231 82 -93 230 0
231 -82 93 230 0
-82 -93 232 0
-82 -230 232 0
-93 -230 232 0
82 93 -232 0
82 230 -232 0
93 230 -232 0
-233 83 94 232 0
-233 -83 -94 232 0
-233 -83 94 -232 0
-233 83 -94 -232 0
233 -83 -94 -232 0
233 83 94 -232 0
233 83 -94 232 0
233 -83 94 232 0
-83 -94 234 0
-83 -232 234 0
-94 -232 234 0
83 94 -234 0
83 232 -234 0
94 232 -234 0
-235 84 95 234 0
-235 -84 -95 234 0
-235 -84 95 -234 0
-235 84 -95 -234 0
235 -84 -95 -234 0
235 84 95 -234 0
235 84 -95 234 0
235 -84 95 234 0
-84 -95 236 0
-84 -234 236 0
-95 -234 236 0
84 95 -236 0
84 234 -236 0
95 234 -236 0
-237 85 96 236 0
-237 -85 -96 236 0
-237 -85 96 -236 0
-237 85 -96 -236 0
237 -85 -96 -236 0
237 85 96 -236 0
237 85 -96 236 0
237 -85 96 236 0
-85 -96 238 0
-85 -236 238 0
-96 -236 238 0
85 96 -238 0
85 236 -238 0
96 236 -238 0
-239 86 97 238 0
-239 -86 -97 238 0
-239 -86 97 -238 0
-239 86 -97 -238 0
239 -86 -97 -238 0
239 86 97 -238 0
239 86 -97 238 0
239 -86 97 238 0
-86 -97 240 0
-86 -238 240 0
-97 -238 240 0
86 97 -240 0
86 238 -240 0
97 238 -240 0
-241 98 240 0
-241 -98 -240 0
241 98 -240 0
241 -98 240 0
-98 -240 242 0
98 240 -242 0
98 -242 0
240 -242 0
-243 100 111 0
-243 -100 -111 0
243 100 -111 0
243 -100 111 0
-100 -111 244 0
100 111 -244 0
100 -244 0
111 -244 0
-245 101 112 244 0
-245 -101 -112 244 0
-245 -101 112 -244 0
-245 101 -112 -244 0
245 -101 -112 -244 0
245 101 112 -244 0
245 101 -112 244 0
245 -101 112 244 0
-101 -112 246 0
-101 -244 246 0
-112 -244 246 0
101 112 -246 0
101 244 -246 0
112 244 -246 0
-247 102 113 246 0
-247 -102 -113 246 0
-247 -102 113 -246 0
-247 102 -113 -246 0
247 -102 -113 -246 0
247 102 113 -246 0
247 102 -113 246 0
247 -102 113 246 0
-102 -113 248 0
-102 -246 248 0
-113 -246 248 0
102 113 -248 0
102 246 -248 0
113 246 -248 0
-249 103 114 248 0
-249 -103 -114 248 0
-249 -103 114 -248 0
-249 103 -114 -248 0
249 -103 -114 -248 0
249 103 114 -248 0
249 103 -114 248 0
249 -103 114 248 0
-103 -114 250 0
-103 -248 250 0
-114 -248 250 0
103 114 -250 0
103 248 -250 0
114 248 -250 0
-251 104 115 250 0
-251 -104 -115 250 0
-251 -104 115 -250 0
-251 104 -115 -250 0
251 -104 -115 -250 0
251 104 115 -250 0
251 104 -115 250 0
251 -104 115 250 0
-104 -115 252 0
-104 -250 252 0
-115 -250 252 0
104 115 -252 0
104 250 -252 0
115 250 -252 0
-253 105 116 252 0
-253 -105 -116 252 0
-253 -105 116 -252 0
-253 105 -116 -252 0
253 -105 -116 -252 0
253 105 116 -252 0
253 105 -116 252 0
253 -105 116 252 0
-105 -116 254 0
-105 -252 254 0
-116 -252 254 0
105 116 -254 0
105 252 -254 0
116 252 -254 0
-255 106 117 254 0
-255 -106 -117 254 0
-255 -106 117 -254 0
-255 106 -117 -254 0
255 -106 -117 -254 0
255 106 117 -254 0
255 106 -117 254 0
255 -106 117 254 0
-106 -117 256 0
-106 -254 256 0
-117 -254 256 0
106 117 -256 0
106 254 -256 0
117 254 -256 0
-257 107 118 256 0
-257 -107 -118 256 0
-257 -107 118 -256 0
-257 107 -118 -256 0
257 -107 -118 -256 0
257 107 118 -256 0
257 107 -118 256 0
257 -107 118 256 0
-107 -118 258 0
-107 -256 258 0
-118 -256 258 0
107 118 -258 0
107 256 -258 0
118 256 -258 0
-259 108 119 258 0
-259 -108 -119 258 0
-259 -108 119 -258 0
-259 108 -119 -258 0
259 -108 -119 -258 0
259 108 119 -258 0
259 108 -119 258 0
259 -108 119 258 0
-108 -119 260 0
-108 -258 260 0
-119 -258 260 0
108 119 -260 0
108 258 -260 0
119 258 -260 0
-261 109 120 260 0
-261 -109 -120 260 0
-261 -109 120 -260 0
-261 109 -120 -260 0
261 -109 -120 -260 0
261 109 120 -260 0
261 109 -120 260 0
261 -109 120 260 0
-109 -120 262 0
-109 -260 262 0
-120 -260 262 0
109 120 -262 0
109 260 -262 0
120 260 -262 0
-263 110 121 262 0
-263 -110 -121 262 0
-263 -110 121 -262 0
-263 110 -121 -262 0
263 -110 -121 -262 0
263 110 121 -262 0
263 110 -121 262 0
263 -110 121 262 0
-110 -121 264 0
-110 -262 264 0
-121 -262 264 0
110 121 -264 0
110 262 -264 0
121 262 -264 0
-265 122 264 0
-265 -122 -264 0
265 122 -264 0
265 -122 264 0
-122 -264 266 0
122 264 -266 0
122 -266 0
264 -266 0
-267 124 135 0
-267 -124 -135 0
267 124 -135 0
267 -124 135 0
-124 -135 268 0
124 135 -268 0
124 -268 0
135 -268 0
-269 125 136 268 0
-269 -125 -136 268 0
-269 -125 136 -268 0
-269 125 -136 -268 0
269 -125 -136 -268 0
269 125 136 -268 0
269 125 -136 268 0
269 -125 136 268 0
-125 -136 270 0
-125 -268 270 0
-136 -268 270 0
125 136 -270 0
125 268 -270 0
136 268 -270 0
-271 126 137 270 0
-271 -126 -137 270 0
-271 -126 137 -270 0
-271 126 -137 -270 0
271 -126 -137 -270 0
271 126 137 -270 0
271 126 -137 270 0
271 -126 137 270 0
-126 -137 272 0
-126 -270 272 0
-137 -270 272 0
126 137 -272 0
126 270 -272 0
137 270 -272 0
-273 127 138 272 0
-273 -127 -138 272 0
-273 -127 138 -272 0
-273 127 -138 -272 0
273 -127 -138 -272 0
273 127 138 -272 0
273 127 -138 272 0
273 -127 138 272 0
-127 -138 274 0
-127 -272 274 0
-138 -272 274 0
127 138 -274 0
127 272 -274 0
138 272 -274 0
-275 128 139 274 0
-275 -128 -139 274 0
-275 -128 139 -274 0
-275 128 -139 -274 0
275 -128 -139 -274 0
275 128 139 -274 0
275 128 -139 274 0
275 -128 139 274 0
-128 -139 276 0
-128 -274 276 0
-139 -274 276 0
128 139 -276 0
128 274 -276 0
139 274 -276 0
-277 129 140 276 0
-277 -129 -140 276 0
-277 -129 140 -276 0
-277 129 -140 -276 0
277 -129 -140 -276 0
277 129 140 -276 0
277 129 -140 276 0
277 -129 140 276 0
-129 -140 278 0
-129 -276 278 0
-140 -276 278 0
129 140 -278 0
129 276 -278 0
140 276 -278 0
-279 130 141 278 0
-279 -130 -141 278 0
-279 -130 141 -278 0
-279 130 -141 -278 0
279 -130 -141 -278 0
279 130 141 -278 0
279 130 -141 278 0
279 -130 141 278 0
-130 -141 280 0
-130 -278 280 0
-141 -278 280 0
130 141 -280 0
130 278 -280 0
141 278 -280 0
-281 131 142 280 0
-281 -131 -142 280 0
-281 -131 142 -280 0
-281 131 -142 -280 0
281 -131 -142 -280 0
281 131 142 -280 0
281 131 -142 280 0
281 -131 142 280 0
-131 -142 282 0
-131 -280 282 0
-142 -280 282 0
131 142 -282 0
131 280 -282 0
142 280 -282 0
-283 132 143 282 0
-283 -132 -143 282 0
-283 -132 143 -282 0
-283 132 -143 -282 0
283 -132 -143 -282 0
283 132 143 -282 0
283 132 -143 282 0
283 -132 143 282 0
-132 -143 284 0
-132 -282 284 0
-143 -282 284 0
132 143 -284 0
132 282 -284 0
143 282 -284 0
-285 133 144 284 0
-285 -133 -144 284 0
-285 -133 144 -284 0
-285 133 -144 -284 0
285 -133 -144 -284 0
285 133 144 -284 0
285 133 -144 284 0
285 -133 144 284 0
-133 -144 286 0
-133 -284 286 0
-144 -284 286 0
133 144 -286 0
133 284 -286 0
144 284 -286 0
-287 134 145 286 0
-287 -134 -145 286 0
-287 -134 145 -286 0
-287 134 -145 -286 0
287 -134 -145 -286 0
287 134 145 -286 0
287 134 -145 286 0
287 -134 145 286 0
-134 -145 288 0
-134 -286 288 0
-145 -286 288 0
134 145 -288 0
134 286 -288 0
145 286 -288 0
-289 146 288 0
-289 -146 -288 0
289 146 -288 0
289 -146 288 0
-146 -288 290 0
146 288 -290 0
146 -290 0
288 -290 0
-291 148 159 0
-291 -148 -159 0
291 148 -159 0
291 -148 159 0
-148 -159 292 0
148 159 -292 0
148 -292 0
159 -292 0
-293 149 160 292 0
-293 -149 -160 292 0
-293 -149 160 -292 0
-293 149 -160 -292 0
293 -149 -160 -292 0
293 149 160 -292 0
293 149 -160 292 0
293 -149 160 292 0
-149 -160 294 0
-149 -292 294 0
-160 -292 294 0
149 160 -294 0
149 292 -294 0
160 292 -294 0
-295 150 161 294 0
-295 -150 -161 294 0
-295 -150 161 -294 0
-295 150 -161 -294 0
295 -150 -161 -294 0
295 150 161 -294 0
295 150 -161 294 0
295 -150 161 294 0
-150 -161 296 0
-150 -294 296 0
-161 -294 296 0
150 161 -296 0
150 294 -296 0
161 294 -296 0
-297 151 162 296 0
-297 -151 -162 296 0
-297 -151 162 -296 0
-297 151 -162 -296 0
297 -151 -162 -296 0
297 151 162 -296 0
297 151 -162 296 0
297 -151 162 296 0
-151 -162 298 0
-151 -296 298 0
-162 -296 298 0
151 162 -298 0
151 296 -298 0
162 296 -298 0
-299 152 163 298 0
-299 -152 -163 298 0
-299 -152 163 -298 0
-299 152 -163 -298 0
299 -152 -163 -298 0
299 152 163 -298 0
299 152 -163 298 0
299 -152 163 298 0
-152 -163 300 0
-152 -298 300 0
-163 -298 300 0
152 163 -300 0
152 298 -300 0
163 298 -300 0
-301 153 164 300 0
-301 -153 -164 300 0
-301 -153 164 -300 0
-301 153 -164 -300 0
301 -153 -164 -300 0
301 153 164 -300 0
301 153 -164 300 0
301 -153 164 300 0
-153 -164 302 0
-153 -300 302 0
-164 -300 302 0
153 164 -302 0
153 300 -302 0
164 300 -302 0
-303 154 165 302 0
-303 -154 -165 302 0
-303 -154 165 -302 0
-303 154 -165 -302 0
303 -154 -165 -302 0
303 154 165 -302 0
303 154 -165 302 0
303 -154 165 302 0
-154 -165 304 0
-154 -302 304 0
-165 -302 304 0
154 165 -304 0
154 302 -304 0
165 302 -304 0
-305 155 166 304 0
-305 -155 -166 304 0
-305 -155 166 -304 0
-305 155 -166 -304 0
305 -155 -166 -304 0
305 155 166 -304 0
305 155 -166 304 0
305 -155 166 304 0
-155 -166 306 0
-155 -304 306 0
-166 -304 306 0
155 166 -306 0
155 304 -306 0
166 304 -306 0
-307 156 167 306 0
-307 -156 -167 306 0
-307 -156 167 -306 0
-307 156 -167 -306 0
307 -156 -167 -306 0
307 156 167 -306 0
307 156 -167 306 0
307 -156 167 306 0
-156 -167 308 0
-156 -306 308 0
-167 -306 308 0
156 167 -308 0
156 306 -308 0
167 306 -308 0
-309 157 168 308 0
-309 -157 -168 308 0
-309 -157 168 -308 0
-309 157 -168 -308 0
309 -157 -168 -308 0
309 157 168 -308 0
309 157 -168 308 0
309 -157 168 308 0
-157 -168 310 0
-157 -308 310 0
-168 -308 310 0
157 168 -310 0
157 308 -310 0
168 308 -310 0
-311 158 169 310 0
-311 -158 -169 310 0
-311 -158 169 -310 0
-311 158 -169 -310 0
311 -158 -169 -310 0
311 158 169 -310 0
311 158 -169 310 0
311 -158 169 310 0
-158 -169 312 0
-158 -310 312 0
-169 -310 312 0
158 169 -312 0
158 310 -312 0
169 310 -312 0
-313 170 312 0
-313 -170 -312 0
313 170 -312 0
313 -170 312 0
-170 -312 314 0
170 312 -314 0
170 -314 0
312 -314 0
-315 173 51 0
-315 -173 -51 0
315 173 -51 0
315 -173 51 0
-173 -51 316 0
173 51 -316 0
173 -316 0
51 -316 0
-317 175 195 316 0
-317 -175 -195 316 0
-317 -175 195 -316 0
-317 175 -195 -316 0
317 -175 -195 -316 0
317 175 195 -316 0
317 175 -195 316 0
317 -175 195 316 0
-175 -195 318 0
-175 -316 318 0
-195 -316 318 0
175 195 -318 0
175 316 -318 0
195 316 -318 0
-319 177 197 318 0
-319 -177 -197 318 0
-319 -177 197 -318 0
-319 177 -197 -318 0
319 -177 -197 -318 0
319 177 197 -318 0
319 177 -197 318 0
319 -177 197 318 0
-177 -197 320 0
-177 -318 320 0
-197 -318 320 0
177 197 -320 0
177 318 -320 0
197 318 -320 0
-321 179 199 320 0
-321 -179 -199 320 0
-321 -179 199 -320 0
-321 179 -199 -320 0
321 -179 -199 -320 0
321 179 199 -320 0
321 179 -199 320 0
321 -179 199 320 0
-179 -199 322 0
-179 -320 322 0
-199 -320 322 0
179 199 -322 0
179 320 -322 0
199 320 -322 0
-323 181 201 322 0
-323 -181 -201 322 0
-323 -181 201 -322 0
-323 181 -201 -322 0
323 -181 -201 -322 0
323 181 201 -322 0
323 181 -201 322 0
323 -181 201 322 0
-181 -201 324 0
-181 -322 324 0
-201 -322 324 0
181 201 -324 0
181 322 -324 0
201 322 -324 0
-325 183 203 324 0
-325 -183 -203 324 0
-325 -183 203 -324 0
-325 183 -203 -324 0
325 -183 -203 -324 0
325 183 203 -324 0
325 183 -203 324 0
325 -183 203 324 0
-183 -203 326 0
-183 -324 326 0
-203 -324 326 0
183 203 -326 0
183 324 -326 0
203 324 -326 0
-327 185 205 326 0
-327 -185 -205 326 0
-327 -185 205 -326 0
-327 185 -205 -326 0
327 -185 -205 -326 0
327 185 205 -326 0
327 185 -205 326 0
327 -185 205 326 0
-185 -205 328 0
-185 -326 328 0
-205 -326 328 0
185 205 -328 0
185 326 -328 0
205 326 -328 0
-329 187 207 328 0
-329 -187 -207 328 0
-329 -187 207 -328 0
-329 187 -207 -328 0
329 -187 -207 -328 0
329 187 207 -328 0
329 187 -207 328 0
329 -187 207 328 0
-187 -207 330 0
-187 -328 330 0
-207 -328 330 0
187 207 -330 0
187 328 -330 0
207 328 -330 0
-331 189 209 330 0
-331 -189 -209 330 0
-331 -189 209 -330 0
-331 189 -209 -330 0
331 -189 -209 -330 0
331 189 209 -330 0
331 189 -209 330 0
331 -189 209 330 0
-189 -209 332 0
-189 -330 332 0
-209 -330 332 0
189 209 -332 0
189 330 -332 0
209 330 -332 0
-333 191 211 332 0
-333 -191 -211 332 0
-333 -191 211 -332 0
-333 191 -211 -332 0
333 -191 -211 -332 0
333 191 211 -332 0
333 191 -211 332 0
333 -191 211 332 0
-191 -211 334 0
-191 -332 334 0
-211 -332 334 0
191 211 -334 0
191 332 -334 0
211 332 -334 0
-335 193 213 334 0
-335 -193 -213 334 0
-335 -193 213 -334 0
-335 193 -213 -334 0
335 -193 -213 -334 0
335 193 213 -334 0
335 193 -213 334 0
335 -193 213 334 0
-193 -213 336 0
-193 -334 336 0
-213 -334 336 0
193 213 -336 0
193 334 -336 0
213 334 -336 0
-337 194 215 336 0
-337 -194 -215 336 0
-337 -194 215 -336 0
-337 194 -215 -336 0
337 -194 -215 -336 0
337 194 215 -336 0
337 194 -215 336 0
337 -194 215 336 0
-194 -215 338 0
-194 -336 338 0
-215 -336 338 0
194 215 -338 0
194 336 -338 0
215 336 -338 0
-339 217 338 0
-339 -217 -338 0
339 217 -338 0
339 -217 338 0
-217 -338 340 0
217 338 -340 0
217 -340 0
338 -340 0
-341 218 340 0
-341 -218 -340 0
341 218 -340 0
341 -218 340 0
-218 -340 342 0
218 340 -342 0
218 -342 0
340 -342 0
-343 221 99 0
-343 -221 -99 0
343 221 -99 0
343 -221 99 0
-221 -99 344 0
221 99 -344 0
221 -344 0
99 -344 0
-345 223 243 344 0
-345 -223 -243 344 0
-345 -223 243 -344 0
-345 223 -243 -344 0
345 -223 -243 -344 0
345 223 243 -344 0
345 223 -243 344 0
345 -223 243 344 0
-223 -243 346 0
-223 -344 346 0
-243 -344 346 0
223 243 -346 0
223 344 -346 0
243 344 -346 0
-347 225 245 346 0
-347 -225 -245 346 0
-347 -225 245 -346 0
-347 225 -245 -346 0
347 -225 -245 -346 0
347 225 245 -346 0
347 225 -245 346 0
347 -225 245 346 0
-225 -245 348 0
-225 -346 348 0
-245 -346 348 0
225 245 -348 0
225 346 -348 0
245 346 -348 0
-349 227 247 348 0
-349 -227 -247 348 0
-349 -227 247 -348 0
-349 227 -247 -348 0
349 -227 -247 -348 0
349 227 247 -348 0
349 227 -247 348 0
349 -227 247 348 0
-227 -247 350 0
-227 -348 350 0
-247 -348 350 0
227 247 -350 0
227 348 -350 0
247 348 -350 0
-351 229 249 350 0
-351 -229 -249 350 0
-351 -229 249 -350 0
-351 229 -249 -350 0
351 -229 -249 -350 0
351 229 249 -350 0
351 229 -249 350 0
351 -229 249 350 0
-229 -249 352 0
-229 -350 352 0
-249 -350 352 0
229 249 -352 0
229 350 -352 0
249 350 -352 0
-353 231 251 352 0
-353 -231 -251 352 0
-353 -231 251 -352 0
-353 231 -251 -352 0
353 -231 -251 -352 0
353 231 251 -352 0
353 231 -251 352 0
353 -231 251 352 0
-231 -251 354 0
-231 -352 354 0
-251 -352 354 0
231 251 -354 0
231 352 -354 0
251 352 -354 0
-355 233 253 354 0
-355 -233 -253 354 0
-355 -233 253 -354 0
-355 233 -253 -354 0
355 -233 -253 -354 0
355 233 253 -354 0
355 233 -253 354 0
355 -233 253 354 0
-233 -253 356 0
-233 -354 356 0
-253 -354 356 0
233 253 -356 0
233 354 -356 0
253 354 -356 0
-357 235 255 356 0
-357 -235 -255 356 0
-357 -235 255 -356 0
-357 235 -255 -356 0
357 -235 -255 -356 0
357 235 255 -356 0
357 235 -255 356 0
357 -235 255 356 0
-235 -255 358 0
-235 -356 358 0
-255 -356 358 0
235 255 -358 0
235 356 -358 0
255 356 -358 0
-359 237 257 358 0
-359 -237 -257 358 0
-359 -237 257 -358 0
-359 237 -257 -358 0
359 -237 -257 -358 0
359 237 257 -358 0
359 237 -257 358 0
359 -237 257 358 0
-237 -257 360 0
-237 -358 360 0
-257 -358 360 0
237 257 -360 0
237 358 -360 0
257 358 -360 0
-361 239 259 360 0
-361 -239 -259 360 0
-361 -239 259 -360 0
-361 239 -259 -360 0
361 -239 -259 -360 0
361 239 259 -360 0
361 239 -259 360 0
361 -239 259 360 0
-239 -259 362 0
-239 -360 362 0
-259 -360 362 0
239 259 -362 0
239 360 -362 0
259 360 -362 0
-363 241 261 362 0
-363 -241 -261 362 0
-363 -241 261 -362 0
-363 241 -261 -362 0
363 -241 -261 -362 0
363 241 261 -362 0
363 241 -261 362 0
363 -241 261 362 0
-241 -261 364 0
-241 -362 364 0
-261 -362 364 0
241 261 -364 0
241 362 -364 0
261 362 -364 0
-365 242 263 364 0
-365 -242 -263 364 0
-365 -242 263 -364 0
-365 242 -263 -364 0
365 -242 -263 -364 0
365 242 263 -364 0
365 242 -263 364 0
365 -242 263 364 0
-242 -263 366 0
-242 -364 366 0
-263 -364 366 0
242 263 -366 0
242 364 -366 0
263 364 -366 0
-367 265 366 0
-367 -265 -366 0
367 265 -366 0
367 -265 366 0
-265 -366 368 0
265 366 -368 0
265 -368 0
366 -368 0
-369 266 368 0
-369 -266 -368 0
369 266 -368 0
369 -266 368 0
-266 -368 370 0
266 368 -370 0
266 -370 0
368 -370 0
-371 269 147 0
-371 -269 -147 0
371 269 -147 0
371 -269 147 0
-269 -147 372 0
269 147 -372 0
269 -372 0
147 -372 0
-373 271 291 372 0
-373 -271 -291 372 0
-373 -271 291 -372 0
-373 271 -291 -372 0
373 -271 -291 -372 0
373 271 291 -372 0
373 271 -291 372 0
373 -271 291 372 0
-271 -291 374 0
-271 -372 374 0
-291 -372 374 0
271 291 -374 0
271 372 -374 0
291 372 -374 0
-375 273 293 374 0
-375 -273 -293 374 0
-375 -273 293 -374 0
-375 273 -293 -374 0
375 -273 -293 -374 0
375 273 293 -374 0
375 273 -293 374 0
375 -273 293 374 0
-273 -293 376 0
-273 -374 376 0
-293 -374 376 0
273 293 -376 0
273 374 -376 0
293 374 -376 0
-377 275 295 376 0
-377 -275 -295 376 0
-377 -275 295 -376 0
-377 275 -295 -376 0
377 -275 -295 -376 0
377 275 295 -376 0
377 275 -295 376 0
377 -275 295 376 0
-275 -295 378 0
-275 -376 378 0
-295 -376 378 0
275 295 -378 0
275 376 -378 0
295 376 -378 0
-379 277 297 378 0
-379 -277 -297 378 0
-379 -277 297 -378 0
-379 277 -297 -378 0
379 -277 -297 -378 0
379 277 297 -378 0
379 277 -297 378 0
379 -277 297 378 0
-277 -297 380 0
-277 -378 380 0
-297 -378 380 0
277 297 -380 0
277 378 -380 0
297 378 -380 0
-381 279 299 380 0
-381 -279 -299 380 0
-381 -279 299 -380 0
-381 279 -299 -380 0
381 -279 -299 -380 0
381 279 299 -380 0
381 279 -299 380 0
381 -279 299 380 0
-279 -299 382 0
-279 -380 382 0
-299 -380 382 0
279 299 -382 0
279 380 -382 0
299 380 -382 0
-383 281 301 382 0
-383 -281 -301 382 0
-383 -281 301 -382 0
-383 281 -301 -382 0
383 -281 -301 -382 0
383 281 301 -382 0
383 281 -301 382 0
383 -281 301 382 0
-281 -301 384 0
-281 -382 384 0
-301 -382 384 0
281 301 -384 0
281 382 -384 0
301 382 -384 0
-385 283 303 384 0
-385 -283 -303 384 0
-385 -283 303 -384 0
-385 283 -303 -384 0
385 -283 -303 -384 0
385 283 303 -384 0
385 283 -303 384 0
385 -283 303 384 0
-283 -303 386 0
-283 -384 386 0
-303 -384 386 0
283 303 -386 0
283 384 -386 0
303 384 -386 0
-387 285 305 386 0
-387 -285 -305 386 0
-387 -285 305 -386 0
-387 285 -305 -386 0
387 -285 -305 -386 0
387 285 305 -386 0
387 285 -305 386 0
387 -285 305 386 0
-285 -305 388 0
-285 -386 388 0
-305 -386 388 0
285 305 -388 0
285 386 -388 0
305 386 -388 0
-389 287 307 388 0
-389 -287 -307 388 0
-389 -287 307 -388 0
-389 287 -307 -388 0
389 -287 -307 -388 0
389 287 307 -388 0
389 287 -307 388 0
389 -287 307 388 0
-287 -307 390 0
-287 -388 390 0
-307 -388 390 0
287 307 -390 0
287 388 -390 0
307 388 -390 0
-391 289 309 390 0
-391 -289 -309 390 0
-391 -289 309 -390 0
-391 289 -309 -390 0
391 -289 -309 -390 0
391 289 309 -390 0
391 289 -309 390 0
391 -289 309 390 0
-289 -309 392 0
-289 -390 392 0
-309 -390 392 0
289 309 -392 0
289 390 -392 0
309 390 -392 0
-393 290 311 392 0
-393 -290 -311 392 0
-393 -290 311 -392 0
-393 290 -311 -392 0
393 -290 -311 -392 0
393 290 311 -392 0
393 290 -311 392 0
393 -290 311 392 0
-290 -311 394 0
-290 -392 394 0
-311 -392 394 0
290 311 -394 0
290 392 -394 0
311 392 -394 0
-395 313 394 0
-395 -313 -394 0
395 313 -394 0
395 -313 394 0
-313 -394 396 0
313 394 -396 0
313 -396 0
394 -396 0
-397 314 396 0
-397 -314 -396 0
397 314 -396 0
397 -314 396 0
-314 -396 398 0
314 396 -398 0
314 -398 0
396 -398 0
-399 319 75 0
-399 -319 -75 0
399 319 -75 0
399 -319 75 0
-319 -75 400 0
319 75 -400 0
319 -400 0
75 -400 0
-401 321 219 400 0
-401 -321 -219 400 0
-401 -321 219 -400 0
-401 321 -219 -400 0
401 -321 -219 -400 0
401 321 219 -400 0
401 321 -219 400 0
401 -321 219 400 0
-321 -219 402 0
-321 -400 402 0
-219 -400 402 0
321 219 -402 0
321 400 -402 0
219 400 -402 0
-403 323 343 402 0
-403 -323 -343 402 0
-403 -323 343 -402 0
-403 323 -343 -402 0
403 -323 -343 -402 0
403 323 343 -402 0
403 323 -343 402 0
403 -323 343 402 0
-323 -343 404 0
-323 -402 404 0
-343 -402 404 0
323 343 -404 0
323 402 -404 0
343 402 -404 0
-405 325 345 404 0
-405 -325 -345 404 0
-405 -325 345 -404 0
-405 325 -345 -404 0
405 -325 -345 -404 0
405 325 345 -404 0
405 325 -345 404 0
405 -325 345 404 0
-325 -345 406 0
-325 -404 406 0
-345 -404 406 0
325 345 -406 0
325 404 -406 0
345 404 -406 0
-407 327 347 406 0
-407 -327 -347 406 0
-407 -327 347 -406 0
-407 327 -347 -406 0
407 -327 -347 -406 0
407 327 347 -406 0
407 327 -347 406 0
407 -327 347 406 0
-327 -347 408 0
-327 -406 408 0
-347 -406 408 0
327 347 -408 0
327 406 -408 0
347 406 -408 0
-409 329 349 408 0
-409 -329 -349 408 0
-409 -329 349 -408 0
-409 329 -349 -408 0
409 -329 -349 -408 0
409 329 349 -408 0
409 329 -349 408 0
409 -329 349 408 0
-329 -349 410 0
-329 -408 410 0
-349 -408 410 0
329 349 -410 0
329 408 -410 0
349 408 -410 0
-411 331 351 410 0
-411 -331 -351 410 0
-411 -331 351 -410 0
-411 331 -351 -410 0
411 -331 -351 -410 0
411 331 351 -410 0
411 331 -351 410 0
411 -331 351 410 0
-331 -351 412 0
-331 -410 412 0
-351 -410 412 0
331 351 -412 0
331 410 -412 0
351 410 -412 0
-413 333 353 412 0
-413 -333 -353 412 0
-413 -333 353 -412 0
-413 333 -353 -412 0
413 -333 -353 -412 0
413 333 353 -412 0
413 333 -353 412 0
413 -333 353 412 0
-333 -353 414 0
-333 -412 414 0
-353 -412 414 0
333 353 -414 0
333 412 -414 0
353 412 -414 0
-415 335 355 414 0
-415 -335 -355 414 0
-415 -335 355 -414 0
-415 335 -355 -414 0
415 -335 -355 -414 0
415 335 355 -414 0
415 335 -355 414 0
415 -335 355 414 0
-335 -355 416 0
-335 -414 416 0
-355 -414 416 0
335 355 -416 0
335 414 -416 0
355 414 -416 0
-417 337 357 416 0
-417 -337 -357 416 0
-417 -337 357 -416 0
-417 337 -357 -416 0
417 -337 -357 -416 0
417 337 357 -416 0
417 337 -357 416 0
417 -337 357 416 0
-337 -357 418 0
-337 -416 418 0
-357 -416 418 0
337 357 -418 0
337 416 -418 0
357 416 -418 0
-419 339 359 418 0
-419 -339 -359 418 0
-419 -339 359 -418 0
-419 339 -359 -418 0
419 -339 -359 -418 0
419 339 359 -418 0
419 339 -359 418 0
419 -339 359 418 0
-339 -359 420 0
-339 -418 420 0
-359 -418 420 0
339 359 -420 0
339 418 -420 0
359 418 -420 0
-421 341 361 420 0
-421 -341 -361 420 0
-421 -341 361 -420 0
-421 341 -361 -420 0
421 -341 -361 -420 0
421 341 361 -420 0
421 341 -361 420 0
421 -341 361 420 0
-341 -361 422 0
-341 -420 422 0
-361 -420 422 0
341 361 -422 0
341 420 -422 0
361 420 -422 0
-423 342 363 422 0
-423 -342 -363 422 0
-423 -342 363 -422 0
-423 342 -363 -422 0
423 -342 -363 -422 0
423 342 363 -422 0
423 342 -363 422 0
423 -342 363 422 0
-342 -363 424 0
-342 -422 424 0
-363 -422 424 0
342 363 -424 0
342 422 -424 0
363 422 -424 0
-425 365 424 0
-425 -365 -424 0
425 365 -424 0
425 -365 424 0
-365 -424 426 0
365 424 -426 0
365 -426 0
424 -426 0
-427 367 426 0
-427 -367 -426 0
427 367 -426 0
427 -367 426 0
-367 -426 428 0
367 426 -428 0
367 -428 0
426 -428 0
-429 369 428 0
-429 -369 -428 0
429 369 -428 0
429 -369 428 0
-369 -428 430 0
369 428 -430 0
369 -430 0
428 -430 0
-431 370 430 0
-431 -370 -430 0
431 370 -430 0
431 -370 430 0
-370 -430 432 0
370 430 -432 0
370 -432 0
430 -432 0
-433 407 123 0
-433 -407 -123 0
433 407 -123 0
433 -407 123 0
-407 -123 434 0
407 123 -434 0
407 -434 0
123 -434 0
-435 409 267 434 0
-435 -409 -267 434 0
-435 -409 267 -434 0
-435 409 -267 -434 0
435 -409 -267 -434 0
435 409 267 -434 0
435 409 -267 434 0
435 -409 267 434 0
-409 -267 436 0
-409 -434 436 0
-267 -434 436 0
409 267 -436 0
409 434 -436 0
267 434 -436 0
-437 411 371 436 0
-437 -411 -371 436 0
-437 -411 371 -436 0
-437 411 -371 -436 0
437 -411 -371 -436 0
437 411 371 -436 0
437 411 -371 436 0
437 -411 371 436 0
-411 -371 438 0
-411 -436 438 0
-371 -436 438 0
411 371 -438 0
411 436 -438 0
371 436 -438 0
-439 413 373 438 0
-439 -413 -373 438 0
-439 -413 373 -438 0
-439 413 -373 -438 0
439 -413 -373 -438 0
439 413 373 -438 0
439 413 -373 438 0
439 -413 373 438 0
-413 -373 440 0
-413 -438 440 0
-373 -438 440 0
413 373 -440 0
413 438 -440 0
373 438 -440 0
-441 415 375 440 0
-441 -415 -375 440 0
-441 -415 375 -440 0
-441 415 -375 -440 0
441 -415 -375 -440 0
441 415 375 -440 0
441 415 -375 440 0
441 -415 375 440 0
-415 -375 442 0
-415 -440 442 0
-375 -440 442 0
415 375 -442 0
415 440 -442 0
375 440 -442 0
-443 417 377 442 0
-443 -417 -377 442 0
-443 -417 377 -442 0
-443 417 -377 -442 0
443 -417 -377 -442 0
443 417 377 -442 0
443 417 -377 442 0
443 -417 377 442 0
-417 -377 444 0
-417 -442 444 0
-377 -442 444 0
417 377 -444 0
417 442 -444 0
377 442 -444 0
-445 419 379 444 0
-445 -419 -379 444 0
-445 -419 379 -444 0
-445 419 -379 -444 0
445 -419 -379 -444 0
445 419 379 -444 0
445 419 -379 444 0
445 -419 379 444 0
-419 -379 446 0
-419 -444 446 0
-379 -444 446 0
419 379 -446 0
419 444 -446 0
379 444 -446 0
-447 421 381 446 0
-447 -421 -381 446 0
-447 -421 381 -446 0
-447 421 -381 -446 0
447 -421 -381 -446 0
447 421 381 -446 0
447 421 -381 446 0
447 -421 381 446 0
-421 -381 448 0
-421 -446 448 0
-381 -446 448 0
421 381 -448 0
421 446 -448 0
381 446 -448 0
-449 423 383 448 0
-449 -423 -383 448 0
-449 -423 383 -448 0
-449 423 -383 -448 0
449 -423 -383 -448 0
449 423 383 -448 0
449 423 -383 448 0
449 -423 383 448 0
-423 -383 450 0
-423 -448 450 0
-383 -448 450 0
423 383 -450 0
423 448 -450 0
383 448 -450 0
-451 425 385 450 0
-451 -425 -385 450 0
-451 -425 385 -450 0
-451 425 -385 -450 0
451 -425 -385 -450 0
451 425 385 -450 0
451 425 -385 450 0
451 -425 385 450 0
-425 -385 452 0
-425 -450 452 0
-385 -450 452 0
425 385 -452 0
425 450 -452 0
385 450 -452 0
-453 427 387 452 0
-453 -427 -387 452 0
-453 -427 387 -452 0
-453 427 -387 -452 0
453 -427 -387 -452 0
453 427 387 -452 0
453 427 -387 452 0
453 -427 387 452 0
-427 -387 454 0
-427 -452 454 0
-387 -452 454 0
427 387 -454 0
427 452 -454 0
387 452 -454 0
-455 429 389 454 0
-455 -429 -389 454 0
-455 -429 389 -454 0
-455 429 -389 -454 0
455 -429 -389 -454 0
455 429 389 -454 0
455 429 -389 454 0
455 -429 389 454 0
-429 -389 456 0
-429 -454 456 0
-389 -454 456 0
429 389 -456 0
429 454 -456 0
389 454 -456 0
-457 431 391 456 0
-457 -431 -391 456 0
-457 -431 391 -456 0
-457 431 -391 -456 0
457 -431 -391 -456 0
457 431 391 -456 0
457 431 -391 456 0
457 -431 391 456 0
-431 -391 458 0
-431 -456 458 0
-391 -456 458 0
431 391 -458 0
431 456 -458 0
391 456 -458 0
-459 432 393 458 0
-459 -432 -393 458 0
-459 -432 393 -458 0
-459 432 -393 -458 0
459 -432 -393 -458 0
459 432 393 -458 0
459 432 -393 458 0
459 -432 393 458 0
-432 -393 460 0
-432 -458 460 0
-393 -458 460 0
432 393 -460 0
432 458 -460 0
393 458 -460 0
-461 395 460 0
-461 -395 -460 0
461 395 -460 0
461 -395 460 0
-395 -460 462 0
395 460 -462 0
395 -462 0
460 -462 0
-463 397 462 0
-463 -397 -462 0
463 397 -462 0
463 -397 462 0
-397 -462 464 0
397 462 -464 0
397 -464 0
462 -464 0
-465 398 464 0
-465 -398 -464 0
465 398 -464 0
465 -398 464 0
-398 -464 466 0
398 464 -466 0
398 -466 0
464 -466 0
27 -1 -13 0
-27 1 0
-27 13 0
28 -2 -13 0
-28 2 0
-28 13 0
29 -3 -13 0
-29 3 0
-29 13 0
30 -4 -13 0
-30 4 0
-30 13 0
31 -5 -13 0
-31 5 0
-31 13 0
32 -6 -13 0
-32 6 0
-32 13 0
33 -7 -13 0
-33 7 0
-33 13 0
34 -8 -13 0
-34 8 0
-34 13 0
35 -9 -13 0
-35 9 0
-35 13 0
36 -10 -13 0
-36 10 0
-36 13 0
37 -11 -13 0
-37 11 0
-37 13 0
38 -12 -13 0
-38 12 0
-38 13 0
39 -1 -14 0
-39 1 0
-39 14 0
40 -2 -14 0
-40 2 0
-40 14 0
41 -3 -14 0
-41 3 0
-41 14 0
42 -4 -14 0
-42 4 0
-42 14 0
43 -5 -14 0
-43 5 0
-43 14 0
44 -6 -14 0
-44 6 0
-44 14 0
45 -7 -14 0
-45 7 0
-45 14 0
46 -8 -14 0
-46 8 0
-46 14 0
47 -9 -14 0
-47 9 0
-47 14 0
48 -10 -14 0
-48 10 0
-48 14 0
49 -11 -14 0
-49 11 0
-49 14 0
50 -12 -14 0
-50 12 0
-50 14 0
51 -1 -15 0
-51 1 0
-51 15 0
52 -2 -15 0
-52 2 0
-52 15 0
53 -3 -15 0
-53 3 0
-53 15 0
54 -4 -15 0
-54 4 0
-54 15 0
55 -5 -15 0
-55 5 0
-55 15 0
56 -6 -15 0
-56 6 0
-56 15 0
57 -7 -15 0
-57 7 0
-57 15 0
58 -8 -15 0
-58 8 0
-58 15 0
59 -9 -15 0
-59 9 0
-59 15 0
60 -10 -15 0
-60 10 0
-60 15 0
61 -11 -15 0
-61 11 0
-61 15 0
62 -12 -15 0
-62 12 0
-62 15 0
63 -1 -16 0
-63 1 0
-63 16 0
64 -2 -16 0
-64 2 0
-64 16 0
65 -3 -16 0
-65 3 0
-65 16 0
66 -4 -16 0
-66 4 0
-66 16 0
67 -5 -16 0
-67 5 0
-67 16 0
68 -6 -16 0
-68 6 0
-68 16 0
69 -7 -16 0
-69 7 0
-69 16 0
70 -8 -16 0
-70 8 0
-70 16 0
71 -9 -16 0
-71 9 0
-71 16 0
72 -10 -16 0
-72 10 0
-72 16 0
73 -11 -16 0
-73 11 0
-73 16 0
74 -12 -16 0
-74 12 0
-74 16 0
75 -1 -17 0
-75 1 0
-75 17 0
76 -2 -17 0
-76 2 0
-76 17 0
77 -3 -17 0
-77 3 0
-77 17 0
78 -4 -17 0
-78 4 0
-78 17 0
79 -5 -17 0
-79 5 0
-79 17 0
80 -6 -17 0
-80 6 0
-80 17 0
81 -7 -17 0
-81 7 0
-81 17 0
82 -8 -17 0
-82 8 0
-82 17 0
83 -9 -17 0
-83 9 0
-83 17 0
84 -10 -17 0
-84 10 0
-84 17 0
85 -11 -17 0
-85 11 0
-85 17 0
86 -12 -17 0
-86 12 0
-86 17 0
87 -1 -18 0
-87 1 0
-87 18 0
88 -2 -18 0
-88 2 0
-88 18 0
89 -3 -18 0
-89 3 0
-89 18 0
90 -4 -18 0
-90 4 0
-90 18 0
91 -5 -18 0
-91 5 0
-91 18 0
92 -6 -18 0
-92 6 0
-92 18 0
93 -7 -18 0
-93 7 0
-93 18 0
94 -8 -18 0
-94 8 0
-94 18 0
95 -9 -18 0
-95 9 0
-95 18 0
96 -10 -18 0
-96 10 0
-96 18 0
97 -11 -18 0
-97 11 0
-97 18 0
98 -12 -18 0
-98 12 0
-98 18 0
99 -1 -19 0
-99 1 0
-99 19 0
100 -2 -19 0
-100 2 0
-100 19 0
101 -3 -19 0
-101 3 0
-101 19 0
102 -4 -19 0
-102 4 0
-102 19 0
103 -5 -19 0
-103 5 0
-103 19 0
104 -6 -19 0
-104 6 0
-104 19 0
105 -7 -19 0
-105 7 0
-105 19 0
106 -8 -19 0
-106 8 0
-106 19 0
107 -9 -19 0
-107 9 0
-107 19 0
108 -10 -19 0
-108 10 0
-108 19 0
109 -11 -19 0
-109 11 0
-109 19 0
110 -12 -19 0
-110 12 0
-110 19 0
111 -1 -20 0
-111 1 0
-111 20 0
112 -2 -20 0
-112 2 0
-112 20 0
113 -3 -20 0
-113 3 0
-113 20 0
114 -4 -20 0
-114 4 0
-114 20 0
115 -5 -20 0
-115 5 0
-115 20 0
116 -6 -20 0
-116 6 0
-116 20 0
117 -7 -20 0
-117 7 0
-117 20 0
118 -8 -20 0
-118 8 0
-118 20 0
119 -9 -20 0
-119 9 0
-119 20 0
120 -10 -20 0
-120 10 0
-120 20 0
121 -11 -20 0
-121 11 0
-121 20 0
122 -12 -20 0
-122 12 0
-122 20 0
123 -1 -21 0
-123 1 0
-123 21 0
124 -2 -21 0
-124 2 0
-124 21 0
125 -3 -21 0
-125 3 0
-125 21 0
126 -4 -21 0
-126 4 0
-126 21 0
127 -5 -21 0
-127 5 0
-127 21 0
128 -6 -21 0
-128 6 0
-128 21 0
129 -7 -21 0
-129 7 0
-129 21 0
130 -8 -21 0
-130 8 0
-130 21 0
131 -9 -21 0
-131 9 0
-131 21 0
132 -10 -21 0
-132 10 0
-132 21 0
133 -11 -21 0
-133 11 0
-133 21 0
134 -12 -21 0
-134 12 0
-134 21 0
135 -1 -22 0
-135 1 0
-135 22 0
136 -2 -22 0
-136 2 0
-136 22 0
137 -3 -22 0
-137 3 0
-137 22 0
138 -4 -22 0
-138 4 0
-138 22 0
139 -5 -22 0
-139 5 0
-139 22 0
140 -6 -22 0
-140 6 0
-140 22 0
141 -7 -22 0
-141 7 0
-141 22 0
142 -8 -22 0
-142 8 0
-142 22 0
143 -9 -22 0
-143 9 0
-143 22 0
144 -10 -22 0
-144 10 0
-144 22 0
145 -11 -22 0
-145 11 0
-145 22 0
146 -12 -22 0
-146 12 0
-146 22 0
147 -1 -23 0
-147 1 0
-147 23 0
148 -2 -23 0
-148 2 0
-148 23 0
149 -3 -23 0
-149 3 0
-149 23 0
150 -4 -23 0
-150 4 0
-150 23 0
151 -5 -23 0
-151 5 0
-151 23 0
152 -6 -23 0
-152 6 0
-152 23 0
153 -7 -23 0
-153 7 0
-153 23 0
154 -8 -23 0
-154 8 0
-154 23 0
155 -9 -23 0
-155 9 0
-155 23 0
156 -10 -23 0
-156 10 0
-156 23 0
157 -11 -23 0
-157 11 0
-157 23 0
158 -12 -23 0
-158 12 0
-158 23 0
159 -1 -24 0
-159 1 0
-159 24 0
160 -2 -24 0
-160 2 0
-160 24 0
161 -3 -24 0
-161 3 0
-161 24 0
162 -4 -24 0
-162 4 0
-162 24 0
163 -5 -24 0
-163 5 0
-163 24 0
164 -6 -24 0
-164 6 0
-164 24 0
165 -7 -24 0
-165 7 0
-165 24 0
166 -8 -24 0
-166 8 0
-166 24 0
167 -9 -24 0
-167 9 0
-167 24 0
168 -10 -24 0
-168 10 0
-168 24 0
169 -11 -24 0
-169 11 0
-169 24 0
170 -12 -24 0
-170 12 0
-170 24 0
27 -25 0
-27 25 0
171 -26 0
-171 26 0
315 -26 0
-315 26 0
317 -25 0
-317 25 0
399 -26 0
-399 26 0
401 -25 0
-401 25 0
403 -26 0
-403 26 0
405 -26 0
-405 26 0
433 -26 0
-433 26 0
435 -26 0
-435 26 0
437 -25 0
-437 25 0
439 -25 0
-439 25 0
441 -26 0
-441 26 0
443 -25 0
-443 25 0
445 -25 0
-445 25 0
447 -26 0
-447 26 0
449 -25 0
-449 25 0
451 -25 0
-451 25 0
453 -26 0
-453 26 0
455 -26 0
-455 26 0
457 -26 0
-457 26 0
459 -26 0
-459 26 0
461 -26 0
-461 26 0
463 -25 0
-463 25 0
465 -25 0
-465 25 0
466 -25 0
-466 25 0
